p cnf 4 25
1 2 3 4 0
1 -2 3 -4 0
1 -2 -3 4 0
1 2 -3 -4 0
1 -2 -3 -4 0
1 2 3 4 0
1 -2 3 -4 0
 -2 -3 4 0
1 2 -3 -4 0
1 -2 -3 -4 0
1 2 3 4 0
 -2 3 -4 0
1 -2 -3 4 0
1 2 -3 -4 0
1 -2 -3 -4 0
1 2 3 4 0
1 -2 3 -4 0
1 -2 -3 4 0
1 2 -3 -4 0
1 -2 -3 -4 0
1 2 3 4 0
1 -2 3 -4 0
1 -2 -3 4 0
 2 -3 -4 0
 -2 -3 -4 0
